(set-info :smt-lib-version 2.6)
(set-logic QF_S)
(set-info :source |
Generated by: Joel Day, Thorsten Ehlers, Mitja Kulczynski, Federico Mora, Florin Manea, Dirk Nowotka, Danny Poulsen, Zhengyang Lu
Application: Test WOORPJE
Target solver: WOORPJE
Publications: Day, J. D., Ehlers, T., Kulczynski, M., Manea, F., Nowotka, D., & Poulsen, D. B. (2019). On solving word equations using SAT. In RP 2019
Description: Transoformed and expanded from Track02
|)
(set-info :license "https://creativecommons.org/licenses/by/4.0/")
(set-info :category "random")
(set-info :status unknown)

(declare-fun I () String)
(declare-fun K () String)
(declare-fun H () String)
(declare-fun G () String)
(declare-fun J () String)
(assert (= (str.++  G "aaaaaaa" G "aaaaaab" I I "aa" I H "ab" I "aab" J J "b" K)  (str.++  "aaaaaaaaaaaaaaaaaa" I H H H "a" I H H H "b" J "a" J J J "a" J J "ba" K "a" K "baabaa") ))
(check-sat)

(exit)
